c 2 __LINUXTHREADS_OLD__
c 1 __UCLIBC_HAS_THREADS_NATIVE__
c 6 __UCLIBC_HAS_STDIO_BUFSIZ_NONE__
c 5 __LINUXTHREADS_NEW__
c 3 __UCLIBC_HAS_THREADS__
c 4 __USE_OLD_VFPRINTF__
p cnf 6 2
1 -4 2 -3 5 1
1 2 6 -3 5 1
